
        $ From http://www.csplib.org/Problems/prob009/data/helmut.pdf
        $ Problem number 12
        $ Sequence length : 23
        language ESSENCE' 1.0
        letting sizemaster be 140
        letting sizes be sequence(1,2,3,4,5,8,10,13,16,19,20,23,27,28,29,31,33,38,42,45,48,53,54)
        